p edge 90 1204
e 1 5
e 1 8
e 1 9
e 1 12
e 1 15
e 1 17
e 1 18
e 1 19
e 1 21
e 1 24
e 1 30
e 1 37
e 1 39
e 1 42
e 1 46
e 1 53
e 1 60
e 1 62
e 1 66
e 1 67
e 1 70
e 1 74
e 1 75
e 1 85
e 2 9
e 2 15
e 2 18
e 2 21
e 2 22
e 2 28
e 2 31
e 2 33
e 2 35
e 2 36
e 2 39
e 2 41
e 2 42
e 2 45
e 2 47
e 2 52
e 2 53
e 2 55
e 2 58
e 2 61
e 2 64
e 2 71
e 2 74
e 2 75
e 2 82
e 2 86
e 3 5
e 3 10
e 3 17
e 3 18
e 3 19
e 3 20
e 3 22
e 3 25
e 3 32
e 3 33
e 3 35
e 3 36
e 3 37
e 3 42
e 3 43
e 3 47
e 3 50
e 3 57
e 3 62
e 3 63
e 3 69
e 3 73
e 3 78
e 3 79
e 3 80
e 3 81
e 3 84
e 3 85
e 3 86
e 3 88
e 3 90
e 4 9
e 4 11
e 4 14
e 4 18
e 4 22
e 4 26
e 4 29
e 4 31
e 4 32
e 4 38
e 4 39
e 4 54
e 4 60
e 4 65
e 4 67
e 4 68
e 4 78
e 4 88
e 4 90
e 5 6
e 5 9
e 5 11
e 5 13
e 5 14
e 5 23
e 5 24
e 5 27
e 5 33
e 5 36
e 5 39
e 5 40
e 5 44
e 5 47
e 5 48
e 5 56
e 5 59
e 5 60
e 5 67
e 5 80
e 5 84
e 5 87
e 6 14
e 6 15
e 6 22
e 6 26
e 6 31
e 6 36
e 6 37
e 6 41
e 6 43
e 6 46
e 6 48
e 6 49
e 6 50
e 6 51
e 6 56
e 6 61
e 6 72
e 6 76
e 6 83
e 6 89
e 7 15
e 7 16
e 7 19
e 7 27
e 7 28
e 7 33
e 7 36
e 7 39
e 7 41
e 7 44
e 7 48
e 7 49
e 7 50
e 7 53
e 7 55
e 7 58
e 7 60
e 7 61
e 7 62
e 7 63
e 7 66
e 7 68
e 7 73
e 7 79
e 7 81
e 7 84
e 7 89
e 8 9
e 8 10
e 8 16
e 8 20
e 8 22
e 8 23
e 8 24
e 8 25
e 8 30
e 8 35
e 8 41
e 8 43
e 8 44
e 8 47
e 8 49
e 8 52
e 8 58
e 8 59
e 8 64
e 8 72
e 8 74
e 8 75
e 8 80
e 8 86
e 8 87
e 8 88
e 8 89
e 9 10
e 9 12
e 9 14
e 9 22
e 9 25
e 9 27
e 9 29
e 9 32
e 9 42
e 9 54
e 9 59
e 9 65
e 9 66
e 9 69
e 9 70
e 9 74
e 9 75
e 9 76
e 9 78
e 9 80
e 9 83
e 9 86
e 10 15
e 10 18
e 10 19
e 10 22
e 10 28
e 10 29
e 10 39
e 10 49
e 10 50
e 10 51
e 10 53
e 10 54
e 10 63
e 10 68
e 10 70
e 10 71
e 10 72
e 10 73
e 10 81
e 10 89
e 11 13
e 11 14
e 11 18
e 11 19
e 11 21
e 11 24
e 11 28
e 11 35
e 11 36
e 11 38
e 11 40
e 11 43
e 11 44
e 11 46
e 11 50
e 11 54
e 11 55
e 11 56
e 11 62
e 11 65
e 11 70
e 11 74
e 11 76
e 11 79
e 11 82
e 11 84
e 11 85
e 11 86
e 11 87
e 11 88
e 11 90
e 12 15
e 12 22
e 12 24
e 12 25
e 12 30
e 12 33
e 12 40
e 12 41
e 12 42
e 12 45
e 12 47
e 12 52
e 12 53
e 12 61
e 12 62
e 12 63
e 12 68
e 12 69
e 12 71
e 12 72
e 12 74
e 12 76
e 12 80
e 12 86
e 13 18
e 13 19
e 13 23
e 13 26
e 13 28
e 13 30
e 13 38
e 13 40
e 13 44
e 13 45
e 13 49
e 13 55
e 13 61
e 13 63
e 13 68
e 13 69
e 13 74
e 13 75
e 13 77
e 13 81
e 13 84
e 14 15
e 14 18
e 14 21
e 14 27
e 14 28
e 14 31
e 14 38
e 14 41
e 14 42
e 14 44
e 14 48
e 14 52
e 14 54
e 14 55
e 14 60
e 14 70
e 14 71
e 14 74
e 14 75
e 14 77
e 14 78
e 14 85
e 14 86
e 15 17
e 15 18
e 15 19
e 15 20
e 15 24
e 15 33
e 15 34
e 15 38
e 15 39
e 15 42
e 15 46
e 15 48
e 15 49
e 15 50
e 15 51
e 15 52
e 15 54
e 15 62
e 15 65
e 15 67
e 15 69
e 15 74
e 15 81
e 15 86
e 15 87
e 15 88
e 15 89
e 16 21
e 16 24
e 16 25
e 16 29
e 16 30
e 16 36
e 16 37
e 16 38
e 16 39
e 16 41
e 16 43
e 16 44
e 16 46
e 16 50
e 16 51
e 16 52
e 16 56
e 16 58
e 16 64
e 16 70
e 16 74
e 16 75
e 16 80
e 16 82
e 16 83
e 16 84
e 16 87
e 16 90
e 17 18
e 17 22
e 17 25
e 17 26
e 17 28
e 17 31
e 17 34
e 17 37
e 17 38
e 17 40
e 17 49
e 17 50
e 17 56
e 17 58
e 17 62
e 17 66
e 17 67
e 17 68
e 17 70
e 17 71
e 17 73
e 17 74
e 17 75
e 17 80
e 17 82
e 17 83
e 17 84
e 17 86
e 17 89
e 17 90
e 18 19
e 18 22
e 18 23
e 18 27
e 18 37
e 18 38
e 18 43
e 18 49
e 18 52
e 18 53
e 18 62
e 18 63
e 18 65
e 18 69
e 18 75
e 18 76
e 18 80
e 18 81
e 18 83
e 18 84
e 18 85
e 18 86
e 18 90
e 19 20
e 19 29
e 19 32
e 19 34
e 19 35
e 19 36
e 19 41
e 19 48
e 19 49
e 19 53
e 19 67
e 19 68
e 19 70
e 19 72
e 19 77
e 19 85
e 19 87
e 20 23
e 20 25
e 20 26
e 20 29
e 20 31
e 20 35
e 20 43
e 20 46
e 20 49
e 20 54
e 20 58
e 20 59
e 20 60
e 20 65
e 20 66
e 20 68
e 20 69
e 20 79
e 20 81
e 20 88
e 20 90
e 21 23
e 21 24
e 21 26
e 21 27
e 21 36
e 21 39
e 21 41
e 21 42
e 21 48
e 21 50
e 21 54
e 21 56
e 21 60
e 21 61
e 21 63
e 21 64
e 21 66
e 21 68
e 21 70
e 21 72
e 21 74
e 21 75
e 21 83
e 21 86
e 22 25
e 22 35
e 22 39
e 22 40
e 22 41
e 22 43
e 22 45
e 22 48
e 22 51
e 22 52
e 22 55
e 22 57
e 22 59
e 22 67
e 22 69
e 22 72
e 22 73
e 22 76
e 22 80
e 22 81
e 22 83
e 22 89
e 22 90
e 23 25
e 23 27
e 23 30
e 23 35
e 23 38
e 23 45
e 23 46
e 23 47
e 23 48
e 23 52
e 23 53
e 23 54
e 23 59
e 23 60
e 23 63
e 23 65
e 23 66
e 23 73
e 23 75
e 23 79
e 23 87
e 24 25
e 24 26
e 24 28
e 24 31
e 24 37
e 24 40
e 24 43
e 24 47
e 24 53
e 24 54
e 24 57
e 24 59
e 24 63
e 24 67
e 24 69
e 24 71
e 24 80
e 24 81
e 24 87
e 24 88
e 24 90
e 25 26
e 25 29
e 25 35
e 25 37
e 25 39
e 25 40
e 25 41
e 25 42
e 25 51
e 25 52
e 25 53
e 25 54
e 25 57
e 25 58
e 25 59
e 25 65
e 25 66
e 25 67
e 25 73
e 25 80
e 25 84
e 25 85
e 26 27
e 26 29
e 26 34
e 26 39
e 26 40
e 26 42
e 26 46
e 26 49
e 26 50
e 26 56
e 26 61
e 26 62
e 26 63
e 26 64
e 26 65
e 26 66
e 26 68
e 26 71
e 26 73
e 26 81
e 26 82
e 26 90
e 27 28
e 27 31
e 27 36
e 27 37
e 27 43
e 27 46
e 27 47
e 27 50
e 27 51
e 27 55
e 27 61
e 27 64
e 27 66
e 27 68
e 27 71
e 27 72
e 27 76
e 27 77
e 27 82
e 27 83
e 27 84
e 27 85
e 27 86
e 27 88
e 28 32
e 28 35
e 28 48
e 28 57
e 28 60
e 28 64
e 28 67
e 28 81
e 28 85
e 28 89
e 29 31
e 29 43
e 29 47
e 29 49
e 29 52
e 29 53
e 29 60
e 29 62
e 29 64
e 29 73
e 29 80
e 29 82
e 29 88
e 29 90
e 30 32
e 30 35
e 30 39
e 30 42
e 30 43
e 30 44
e 30 48
e 30 49
e 30 55
e 30 58
e 30 59
e 30 61
e 30 74
e 30 81
e 30 88
e 30 90
e 31 33
e 31 34
e 31 36
e 31 38
e 31 42
e 31 44
e 31 45
e 31 52
e 31 55
e 31 58
e 31 60
e 31 61
e 31 66
e 31 76
e 31 79
e 31 81
e 31 82
e 32 38
e 32 41
e 32 42
e 32 44
e 32 45
e 32 47
e 32 48
e 32 50
e 32 57
e 32 58
e 32 59
e 32 67
e 32 68
e 32 74
e 32 75
e 32 78
e 32 83
e 32 90
e 33 37
e 33 39
e 33 40
e 33 41
e 33 42
e 33 43
e 33 44
e 33 48
e 33 67
e 33 69
e 33 75
e 33 78
e 33 80
e 33 81
e 33 82
e 33 84
e 33 88
e 34 40
e 34 42
e 34 47
e 34 52
e 34 53
e 34 55
e 34 57
e 34 65
e 34 67
e 34 68
e 34 72
e 34 73
e 34 80
e 34 82
e 34 83
e 34 86
e 34 88
e 35 43
e 35 48
e 35 53
e 35 54
e 35 56
e 35 57
e 35 68
e 35 70
e 35 75
e 35 77
e 35 80
e 35 83
e 35 84
e 35 88
e 35 89
e 36 43
e 36 48
e 36 50
e 36 54
e 36 59
e 36 63
e 36 66
e 36 70
e 36 73
e 36 75
e 36 77
e 36 86
e 36 87
e 36 88
e 36 89
e 37 44
e 37 45
e 37 48
e 37 55
e 37 56
e 37 60
e 37 61
e 37 68
e 37 69
e 37 70
e 37 71
e 37 72
e 37 73
e 37 75
e 37 79
e 37 82
e 37 88
e 37 90
e 38 40
e 38 44
e 38 47
e 38 50
e 38 52
e 38 56
e 38 57
e 38 64
e 38 65
e 38 72
e 38 74
e 38 83
e 38 86
e 38 87
e 39 40
e 39 44
e 39 60
e 39 66
e 39 69
e 39 71
e 39 73
e 39 75
e 39 82
e 39 85
e 40 45
e 40 49
e 40 52
e 40 53
e 40 73
e 40 77
e 40 79
e 40 80
e 40 82
e 40 84
e 40 86
e 41 46
e 41 49
e 41 51
e 41 52
e 41 57
e 41 61
e 41 64
e 41 65
e 41 68
e 41 77
e 41 78
e 41 81
e 41 83
e 41 86
e 41 87
e 41 90
e 42 44
e 42 45
e 42 46
e 42 52
e 42 53
e 42 58
e 42 60
e 42 61
e 42 70
e 42 71
e 42 74
e 42 76
e 42 78
e 42 90
e 43 51
e 43 55
e 43 70
e 43 71
e 43 74
e 43 79
e 43 81
e 43 85
e 43 86
e 43 89
e 44 46
e 44 59
e 44 65
e 44 70
e 44 75
e 44 83
e 44 84
e 45 49
e 45 51
e 45 55
e 45 59
e 45 63
e 45 71
e 45 73
e 45 81
e 45 84
e 45 86
e 46 48
e 46 56
e 46 59
e 46 65
e 46 69
e 46 72
e 46 73
e 46 78
e 46 81
e 46 88
e 47 52
e 47 53
e 47 54
e 47 59
e 47 60
e 47 63
e 47 66
e 47 67
e 47 69
e 47 71
e 47 74
e 47 75
e 47 81
e 47 82
e 47 86
e 47 90
e 48 50
e 48 54
e 48 55
e 48 58
e 48 59
e 48 62
e 48 64
e 48 76
e 48 79
e 48 81
e 48 84
e 48 88
e 48 89
e 49 52
e 49 53
e 49 54
e 49 56
e 49 60
e 49 62
e 49 63
e 49 64
e 49 65
e 49 66
e 49 68
e 49 70
e 49 71
e 49 72
e 49 75
e 49 76
e 49 78
e 49 80
e 49 84
e 49 86
e 49 87
e 49 90
e 50 52
e 50 57
e 50 63
e 50 66
e 50 70
e 50 73
e 50 76
e 50 78
e 50 79
e 50 88
e 50 89
e 51 53
e 51 54
e 51 58
e 51 61
e 51 62
e 51 63
e 51 67
e 51 70
e 51 71
e 51 74
e 51 78
e 51 84
e 51 85
e 51 87
e 52 53
e 52 56
e 52 63
e 52 71
e 52 74
e 52 75
e 52 76
e 52 78
e 52 79
e 52 80
e 52 82
e 52 83
e 53 55
e 53 56
e 53 57
e 53 58
e 53 60
e 53 62
e 53 67
e 53 70
e 53 73
e 53 76
e 53 77
e 53 79
e 53 80
e 53 86
e 53 87
e 53 88
e 54 58
e 54 59
e 54 64
e 54 65
e 54 71
e 54 76
e 54 77
e 54 80
e 54 82
e 54 83
e 54 87
e 54 88
e 54 89
e 54 90
e 55 58
e 55 66
e 55 70
e 55 73
e 55 74
e 55 75
e 55 78
e 55 79
e 56 58
e 56 72
e 56 73
e 56 74
e 56 75
e 56 77
e 56 80
e 56 81
e 56 88
e 57 58
e 57 60
e 57 61
e 57 64
e 57 65
e 57 69
e 57 70
e 57 72
e 57 78
e 57 90
e 58 64
e 58 65
e 58 66
e 58 77
e 58 79
e 58 80
e 58 87
e 58 90
e 59 60
e 59 64
e 59 65
e 59 68
e 59 71
e 59 72
e 59 73
e 59 79
e 59 81
e 59 84
e 59 87
e 59 89
e 60 61
e 60 62
e 60 65
e 60 66
e 60 69
e 60 76
e 60 80
e 60 83
e 60 84
e 60 86
e 60 90
e 61 65
e 61 68
e 61 71
e 61 75
e 61 78
e 61 79
e 61 80
e 61 82
e 61 85
e 61 86
e 61 88
e 61 89
e 62 71
e 62 73
e 62 75
e 62 79
e 62 81
e 62 82
e 62 83
e 62 84
e 62 87
e 62 90
e 63 67
e 63 71
e 63 72
e 63 74
e 63 80
e 63 82
e 63 86
e 64 68
e 64 69
e 64 71
e 64 72
e 64 74
e 64 78
e 64 79
e 64 82
e 64 84
e 64 89
e 64 90
e 65 66
e 65 70
e 65 74
e 65 79
e 65 89
e 66 68
e 66 69
e 66 71
e 66 72
e 66 74
e 66 77
e 66 79
e 66 82
e 66 84
e 66 88
e 67 68
e 67 70
e 67 84
e 67 85
e 67 86
e 67 87
e 67 88
e 67 90
e 68 70
e 68 75
e 68 78
e 68 79
e 68 85
e 68 86
e 68 90
e 69 71
e 69 72
e 69 73
e 69 74
e 69 78
e 69 80
e 69 81
e 69 84
e 69 86
e 69 88
e 70 71
e 70 75
e 70 77
e 70 78
e 70 80
e 70 84
e 70 85
e 70 87
e 71 83
e 71 87
e 72 73
e 72 74
e 72 79
e 72 80
e 72 83
e 72 84
e 73 75
e 73 81
e 73 89
e 74 76
e 74 77
e 74 78
e 74 81
e 75 80
e 75 81
e 76 80
e 76 89
e 76 90
e 77 82
e 78 80
e 78 90
e 79 82
e 79 89
e 80 82
e 80 87
e 81 82
e 81 85
e 81 86
e 82 84
e 82 85
e 82 89
e 83 84
e 83 85
e 83 86
e 84 85
e 84 90
e 85 87
e 85 90
e 87 89
